WARNING: for repeatability, setting FPU to use double precision
============================[ Problem Statistics ]=============================
|                                                                             |
|  Number of variables:         33791                                         |
|  Number of clauses:          790005                                         |
|  Parse time:                   0.18 s                                       |
|  Eliminated clauses:           0.06 Mb                                      |
|  Simplification time:          0.33 s                                       |
|                                                                             |
============================[ Search Statistics ]==============================
| Conflicts |          ORIGINAL         |          LEARNT          | Progress |
|           |    Vars  Clauses Literals |    Limit  Clauses Lit/Cl |          |
===============================================================================
|       100 |    4757    50442   167384 |    18495      100     34 | 69.501 % |
|       250 |    4757    50442   167384 |    20344      250     45 | 69.501 % |
|       475 |    4757    50442   167384 |    22379      475     44 | 69.501 % |
|       812 |    4757    50442   167384 |    24617      812     44 | 69.501 % |
|      1318 |    4757    50442   167384 |    27079     1318     43 | 69.501 % |
|      2077 |    4757    50442   167384 |    29787     2077     46 | 69.501 % |
|      3216 |    4757    50442   167384 |    32765     3216     54 | 69.501 % |
|      4924 |    4757    50442   167384 |    36042     4924     55 | 69.501 % |
|      7486 |    4757    50442   167384 |    39646     7486     61 | 69.501 % |
===============================================================================
restarts              : 38
conflicts             : 9081           (14287 /sec)
decisions             : 73614          (0.00 % random) (115813 /sec)
propagations          : 728395         (1145949 /sec)
conflict literals     : 562056         (6.40 % deleted)
Memory used           : 76.00 MB
CPU time              : 0.635626 s

SATISFIABLE
